
List of user-set options:

                                    Name   Value                used
                           compl_inf_tol = 1                     yes
                         constr_viol_tol = 1                     yes
                            dual_inf_tol = 1000                  yes
                           linear_solver = ma97                  yes
                              ma86_small = 1e-30                  no
                                  ma86_u = 0.0001                 no
                              ma97_order = best                  yes
                              ma97_small = 1e-30                 yes
                            ma97_switch1 = at_start              yes
                            ma97_switch2 = od_hd_reuse           yes
                                  ma97_u = 1e-06                 yes
                               ma97_umax = 0.5                   yes
                                max_iter = 1000                  yes
                    max_refinement_steps = 20                    yes
                    min_refinement_steps = 5                     yes
                                 mu_init = 1e-06                 yes
           mu_superlinear_decrease_power = 1.25                  yes
                   nlp_scaling_min_value = 1e-08                 yes
                        option_file_name = Preset_Case:_679_NCP.opt  yes
                             output_file = ./tmp/Preset_Case:_679_NCP.output  yes
                      print_user_options = yes                   yes
        required_infeasibility_reduction = 1                      no
                                     tol = 1e-08                 yes
                   warm_start_bound_frac = 1e-20                 yes
                   warm_start_bound_push = 1e-20                 yes
                   warm_start_init_point = yes                   yes
              warm_start_mult_bound_push = 1e-20                 yes
                warm_start_mult_init_max = 1e+40                 yes
             warm_start_slack_bound_frac = 1e-20                 yes
             warm_start_slack_bound_push = 1e-20                 yes

******************************************************************************
This program contains Ipopt, a library for large-scale nonlinear optimization.
 Ipopt is released as open source code under the Eclipse Public License (EPL).
         For more information visit http://projects.coin-or.org/Ipopt
******************************************************************************

This is Ipopt version 3.12.10, running with linear solver ma97.

Number of nonzeros in equality constraint Jacobian...:   117167
Number of nonzeros in inequality constraint Jacobian.:      213
Number of nonzeros in Lagrangian Hessian.............:    47513

Total number of variables............................:    29977
                     variables with only lower bounds:    11312
                variables with lower and upper bounds:    15135
                     variables with only upper bounds:        0
Total number of equality constraints.................:    29864
Total number of inequality constraints...............:       25
        inequality constraints with only lower bounds:        4
   inequality constraints with lower and upper bounds:        0
        inequality constraints with only upper bounds:       21

iter    objective    inf_pr   inf_du lg(mu)  ||d||  lg(rg) alpha_du alpha_pr  ls
   0 -1.3802032e-01 2.35e-01 2.00e+00  -6.0 0.00e+00    -  0.00e+00 0.00e+00   0
In iteration 0, 9 Slacks too small, adjusting variable bounds
   1 -1.3802032e-01 2.35e-01 2.80e+02  -6.0 1.05e+10    -  2.79e-14 5.94e-19h  1
   2 -1.3802014e-01 2.35e-01 1.44e+03  -6.0 1.56e+02    -  1.00e-02 6.96e-06f  1
   3 -1.3801839e-01 2.35e-01 1.43e+03  -6.0 1.06e+02    -  4.23e-03 6.31e-05h  1
   4 -1.3761989e-01 2.31e-01 1.37e+03  -6.0 1.32e+02    -  6.67e-02 1.65e-02h  1
   5 -1.3643150e-01 2.21e-01 1.34e+03  -6.0 1.90e+02    -  6.43e-03 4.19e-02h  2
   6 -1.3474350e-01 2.06e-01 1.27e+03  -6.0 1.12e+02    -  4.75e-02 6.95e-02h  1
   7 -1.3218234e-01 1.83e-01 8.31e+04  -6.0 1.05e+02    -  2.88e-02 1.12e-01H  1
   8 -1.3166501e-01 1.78e-01 5.12e+04  -6.0 9.54e+01    -  1.39e-01 2.45e-02h  1
   9 -1.2982017e-01 1.63e-01 8.39e+03  -6.0 9.47e+01    -  4.08e-02 8.77e-02h  3
iter    objective    inf_pr   inf_du lg(mu)  ||d||  lg(rg) alpha_du alpha_pr  ls
  10 -1.2408822e-01 1.15e-01 1.72e+04  -6.0 8.64e+01    -  2.67e-01 2.94e-01H  1
  11 -1.2218961e-01 1.02e-01 1.43e+05  -6.0 6.69e+01    -  3.63e-01 1.41e-01h  1
  12 -1.1831977e-01 1.06e-01 1.18e+05  -6.0 6.28e+01    -  4.03e-01 3.39e-01h  1
  13 -1.1809466e-01 1.02e-01 2.50e+05  -6.0 8.78e+01    -  3.11e-01 2.98e-02h  1
  14 -1.1471441e-01 1.03e-01 1.93e+05  -6.0 4.52e+01    -  3.83e-01 2.79e-01h  1
  15 -1.0786808e-01 1.52e-01 2.07e+05  -6.0 3.53e+01    -  2.22e-01 8.44e-01H  1
  16 -1.0895483e-01 4.67e-02 2.58e+05  -6.0 1.66e+01    -  4.67e-01 1.00e+00h  1
  17 -1.1065930e-01 1.93e-02 6.32e+05  -6.0 6.15e+00    -  3.45e-01 7.04e-01h  1
  18r-1.1065930e-01 1.93e-02 1.00e+03  -2.1 0.00e+00    -  0.00e+00 4.07e-07R  2
  19r-1.1054274e-01 1.40e-02 1.00e+03  -2.1 9.00e+02    -  2.90e-04 2.78e-04f  1
iter    objective    inf_pr   inf_du lg(mu)  ||d||  lg(rg) alpha_du alpha_pr  ls
  20 -1.1067116e-01 7.13e-05 7.92e+07  -6.0 3.56e-01    -  2.00e-01 1.00e+00h  1
  21 -1.1068730e-01 5.37e-05 7.37e+07  -6.0 2.24e-01    -  9.57e-01 2.47e-01h  1
  22 -1.1178176e-01 6.94e-03 2.14e+07  -6.0 5.14e+00    -  6.54e-01 7.08e-01f  1
  23 -1.1608801e-01 8.09e-02 1.92e+05  -6.0 1.51e+01    -  3.43e-01 1.00e+00f  1
  24 -1.2239408e-01 1.58e-01 9.56e+04  -6.0 2.23e+01    -  5.02e-01 1.00e+00h  1
  25 -1.2933247e-01 2.28e-01 5.00e+04  -6.0 4.20e+01    -  4.78e-01 6.40e-01h  1
  26 -1.3616522e-01 2.13e-01 1.85e+04  -6.0 6.69e+01    -  6.30e-01 4.35e-01H  1
  27 -1.4937090e-01 4.55e-01 1.81e+04  -6.0 1.49e+02    -  2.29e-02 4.83e-01f  1
  28 -1.4903037e-01 4.16e-01 1.49e+04  -6.0 8.78e+01    -  1.73e-01 8.36e-02h  1
  29 -1.5429050e-01 5.10e-01 1.39e+04  -6.0 1.27e+02    -  7.04e-02 2.69e-01h  1
iter    objective    inf_pr   inf_du lg(mu)  ||d||  lg(rg) alpha_du alpha_pr  ls
  30 -1.5793376e-01 6.98e-01 1.27e+04  -6.0 1.07e+03    -  8.63e-02 6.14e-02h  1
  31 -1.6016974e-01 6.64e-01 1.18e+04  -6.0 4.24e+02    -  6.70e-02 5.39e-02h  1
  32 -1.6057922e-01 6.48e-01 9.33e+03  -6.0 2.00e+02    -  2.12e-01 2.47e-02h  1
  33 -1.6641619e-01 4.98e-01 5.21e+03  -6.0 2.11e+02    -  4.41e-01 3.50e-01h  1
  34 -1.6881512e-01 5.18e-01 3.39e+03  -6.0 3.65e+02    -  3.49e-01 1.38e-01h  1
  35 -1.6989398e-01 5.20e-01 2.76e+03  -6.0 4.68e+02    -  1.86e-01 5.51e-02h  1
  36 -1.7129045e-01 5.52e-01 2.50e+03  -6.0 4.20e+02    -  3.77e-01 7.61e-02h  1
  37 -1.7303274e-01 6.02e-01 2.31e+03  -6.0 6.23e+02    -  5.18e-02 7.32e-02h  1
  38 -1.7300138e-01 5.73e-01 2.20e+03  -6.0 1.61e+00  -4.0 6.76e-02 4.75e-02h  1
  39 -1.7305713e-01 5.72e-01 2.20e+03  -6.0 5.96e+02    -  4.61e-02 2.54e-03h  1
iter    objective    inf_pr   inf_du lg(mu)  ||d||  lg(rg) alpha_du alpha_pr  ls
  40 -1.7300985e-01 5.28e-01 2.03e+03  -6.0 1.63e+00  -4.5 9.57e-03 7.75e-02h  1
  41 -1.7313406e-01 5.25e-01 2.02e+03  -6.0 6.71e+02    -  1.31e-02 5.39e-03f  1
  42 -1.7347036e-01 5.22e-01 2.01e+03  -6.0 1.41e+04    -  1.12e-03 5.91e-03f  1
  43 -1.7355323e-01 5.20e-01 2.00e+03  -6.0 6.70e+02    -  2.49e-01 3.78e-03h  1
  44 -1.8041084e-01 7.88e+00 1.48e+03  -6.0 9.99e+02    -  2.18e-01 2.57e-01f  1
  45 -1.8098992e-01 2.35e+00 1.51e+03  -6.0 2.62e+02  -5.0 4.48e-05 7.25e-01h  1
  46 -1.8345371e-01 3.55e+00 1.59e+03  -6.0 1.89e+03    -  7.81e-02 5.83e-02h  1
  47 -1.8747824e-01 2.98e+00 5.58e+03  -6.0 8.56e+02    -  6.98e-01 1.65e-01h  1
  48 -1.8895340e-01 1.13e+00 2.17e+03  -6.0 6.88e+00  -5.4 6.05e-01 6.19e-01h  1
  49 -1.9054133e-01 4.85e-01 5.67e+02  -6.0 8.73e+00  -5.9 5.40e-01 5.63e-01h  1
iter    objective    inf_pr   inf_du lg(mu)  ||d||  lg(rg) alpha_du alpha_pr  ls
  50 -1.9089959e-01 4.29e-01 4.00e+04  -6.0 1.42e+01  -6.4 8.18e-01 1.16e-01h  1
  51 -1.9094072e-01 4.23e-01 5.79e+04  -6.0 4.28e+01  -6.9 4.12e-01 1.44e-02h  1
  52 -1.9287328e-01 2.70e-01 5.65e+04  -6.0 1.18e+02  -7.3 9.43e-01 3.90e-01f  1
  53 -1.9509865e-01 2.94e-01 3.98e+04  -6.0 2.91e+02  -7.8 2.04e-01 2.19e-01h  1
  54 -1.9562553e-01 3.09e-01 3.24e+06  -6.0 3.40e+03  -8.3 5.15e-04 1.02e-02h  1
  55 -2.0261315e-01 1.06e+00 6.09e+05  -6.0 2.79e+02  -7.9 1.12e-01 8.03e-01h  1
  56 -2.0531251e-01 1.03e+00 5.16e+05  -6.0 9.75e+02  -8.3 5.30e-02 1.52e-01h  1
  57 -2.0554436e-01 9.75e-01 4.84e+05  -6.0 5.88e+02  -7.9 8.66e-01 6.01e-02h  1
  58 -2.0999709e-01 2.57e+00 3.90e+05  -6.0 1.68e+03  -8.4 3.26e-01 1.95e-01h  1
  59 -2.1005348e-01 2.51e+00 3.81e+05  -6.0 2.38e+02  -8.0 5.59e-01 2.27e-02h  1
iter    objective    inf_pr   inf_du lg(mu)  ||d||  lg(rg) alpha_du alpha_pr  ls
  60 -2.1341933e-01 1.57e+00 1.61e+05  -6.0 5.02e+02  -8.4 4.09e-01 5.78e-01h  1
  61 -2.1559455e-01 1.78e+00 6.70e+04  -6.0 4.93e+02  -8.0 1.00e+00 5.84e-01h  1
  62 -2.1677670e-01 1.92e+00 5.73e+04  -6.0 1.01e+03  -8.5 1.00e+00 1.45e-01h  1
  63r-2.1677670e-01 1.92e+00 9.99e+02   0.1 0.00e+00  -8.1 0.00e+00 3.19e-07R  4
  64r-2.1646903e-01 1.92e+00 9.99e+02   0.1 6.26e+06    -  3.49e-07 2.29e-06f  1
  65 -2.1905610e-01 1.90e+00 9.52e+02  -6.0 1.62e+05    -  1.74e-05 6.01e-03h  1
  66 -2.2343810e-01 3.30e+00 9.37e+02  -6.0 8.33e+04    -  3.85e-02 2.29e-02h  1
  67 -2.2478332e-01 3.33e+00 8.84e+02  -6.0 3.82e+02  -8.5 4.86e-03 1.15e-01h  1
  68 -2.2485303e-01 3.28e+00 8.56e+02  -6.0 6.38e+01  -6.3 1.17e-01 2.24e-02h  1
  69 -2.2441877e-01 9.74e-01 2.06e+02  -6.0 9.72e+01  -6.8 1.56e-01 7.68e-01h  1
iter    objective    inf_pr   inf_du lg(mu)  ||d||  lg(rg) alpha_du alpha_pr  ls
  70 -2.2462459e-01 8.88e-01 1.63e+02  -6.0 5.94e+01  -7.3 7.46e-03 2.11e-01h  1
  71 -2.2472644e-01 8.38e-01 1.53e+02  -6.0 1.41e+02  -7.7 4.99e-02 5.79e-02h  1
  72 -2.2483113e-01 8.01e-01 1.45e+02  -6.0 7.85e+01  -7.3 2.83e-01 5.44e-02h  1
  73 -2.2549993e-01 9.70e-01 8.93e+01  -6.0 1.27e+02  -7.8 1.21e-01 3.84e-01h  1
  74 -2.2670641e-01 7.08e+00 8.47e+01  -6.0 1.04e+02  -7.4 5.56e-01 7.39e-01h  1
  75 -2.2738595e-01 1.11e+01 1.09e+02  -6.0 3.54e+03  -7.9 1.29e-02 3.72e-02h  2
  76 -2.2739986e-01 1.07e+01 1.02e+02  -6.0 1.13e+01  -6.5 4.80e-01 3.17e-02h  1
  77 -2.2773357e-01 9.09e+00 6.08e+01  -6.0 5.85e+01  -7.0 9.51e-01 4.06e-01h  1
  78 -2.2840250e-01 1.94e+01 7.63e+01  -6.0 2.99e+03  -7.5 1.01e-02 3.59e-02h  1
  79 -2.2842369e-01 1.93e+01 7.77e+01  -6.0 1.35e+02  -8.0 1.22e-01 5.40e-03h  1
iter    objective    inf_pr   inf_du lg(mu)  ||d||  lg(rg) alpha_du alpha_pr  ls
  80 -2.2878637e-01 1.86e+01 2.75e+02  -6.0 3.22e+02  -8.4 1.00e+00 5.71e-02h  1
  81 -2.3284257e-01 9.12e+00 1.71e+02  -6.0 1.26e+03  -8.9 6.94e-01 5.11e-01h  1
  82 -2.3465112e-01 6.16e+00 3.78e+02  -6.0 1.81e+03  -9.4 5.50e-01 3.18e-01h  1
  83 -2.3576541e-01 2.71e+00 9.71e+02  -6.0 7.66e+02  -9.0 1.49e-01 6.37e-01h  1
  84 -2.3660907e-01 2.89e+00 3.46e+02  -6.0 7.67e+03  -9.4 8.85e-02 5.14e-02h  1
  85 -2.3810545e-01 2.48e+00 1.42e+03  -6.0 1.46e+03  -9.0 2.01e-01 3.35e-01h  1
  86 -2.3891845e-01 1.98e+00 1.20e+02  -6.0 4.67e+02  -8.6 4.47e-01 2.99e-01h  1
  87 -2.3963760e-01 4.79e-01 1.41e+03  -6.0 1.63e+02  -8.2 3.29e-01 7.91e-01h  1
  88 -2.3978737e-01 1.52e+00 1.36e+04  -6.0 7.42e+02  -8.6 1.50e-01 2.07e-02h  1
  89 -2.4077177e-01 1.11e+00 5.70e+03  -6.0 6.99e+02  -9.1 1.09e-01 2.98e-01h  1
iter    objective    inf_pr   inf_du lg(mu)  ||d||  lg(rg) alpha_du alpha_pr  ls
  90 -2.4378556e-01 3.27e+00 3.75e+06  -6.0 1.78e+03  -9.6 3.71e-03 4.93e-01h  1
  91 -2.4435095e-01 2.37e+00 1.98e+06  -6.0 6.71e+02  -9.2 4.68e-01 4.72e-01h  1
  92 -2.4448966e-01 2.42e+00 1.85e+06  -6.0 1.58e+03  -9.6 2.92e-02 6.53e-02h  1
  93 -2.4434676e-01 1.07e+00 8.27e+05  -6.0 1.08e+02  -5.6 2.80e-01 5.53e-01h  1
  94 -2.4444285e-01 2.30e-01 6.97e+04  -6.0 2.38e+00  -6.1 6.44e-01 9.16e-01h  1
  95 -2.4445379e-01 1.63e+00 7.92e+01  -6.0 3.88e+00  -6.6 1.45e-01 1.00e+00f  1
  96 -2.4469943e-01 2.91e+00 1.64e+01  -6.0 7.60e+00  -7.0 5.78e-01 8.26e-01h  1
  97 -2.4482830e-01 6.67e+00 2.38e+01  -6.0 2.38e+01  -7.5 5.74e-02 4.36e-01h  1
  98 -2.4485139e-01 6.93e+00 1.37e+01  -6.0 1.43e+03  -8.0 6.45e-03 1.86e-03h  1
  99 -2.4528724e-01 4.99e+00 1.73e+01  -6.0 1.58e+02  -8.5 6.06e-01 6.08e-01h  1
iter    objective    inf_pr   inf_du lg(mu)  ||d||  lg(rg) alpha_du alpha_pr  ls
 100 -2.4532675e-01 4.90e+00 1.71e+01  -6.0 2.58e+03  -8.9 3.69e-02 1.79e-02h  1
 101 -2.4540886e-01 1.33e+00 1.41e+01  -6.0 2.42e+01  -7.6 1.00e+00 7.28e-01f  1
 102 -2.4548602e-01 1.09e+00 6.09e+01  -6.0 7.27e+01  -8.1 3.69e-01 1.85e-01h  1
 103 -2.4570592e-01 7.80e-01 2.53e+01  -6.0 4.05e+02  -8.6 2.29e-01 2.97e-01h  1
 104 -2.4598986e-01 6.26e-01 5.31e+01  -6.0 4.52e+02  -9.0 7.04e-02 2.10e-01h  1
 105 -2.4599265e-01 6.23e-01 5.41e+01  -6.0 1.90e+03  -7.7 3.19e-03 4.67e-03h  1
Error in an AMPL evaluation. Run with "halt_on_ampl_error yes" to see details.
Warning: Cutting back alpha due to evaluation error
 106 -2.4599284e-01 6.23e-01 5.39e+01  -6.0 2.79e+03  -8.2 9.37e-07 3.28e-04f  2
 107 -2.4599810e-01 5.96e-01 6.34e+01  -6.0 2.55e+01  -6.9 4.12e-01 4.36e-02h  1
 108 -2.4614919e-01 1.12e-02 7.34e+01  -6.0 1.03e+01  -7.3 8.01e-01 1.00e+00f  1
 109 -2.4628401e-01 9.73e-03 2.41e+02  -6.0 2.95e+01  -7.8 4.71e-01 1.00e+00h  1
iter    objective    inf_pr   inf_du lg(mu)  ||d||  lg(rg) alpha_du alpha_pr  ls
 110 -2.4640003e-01 2.94e-02 9.90e+02  -6.0 8.50e+01  -8.3 1.86e-01 5.45e-01h  1
 111 -2.4696322e-01 2.16e-01 2.87e+00  -6.0 2.60e+02  -8.8 1.00e+00 1.00e+00f  1
 112 -2.4799052e-01 4.65e-01 1.51e+00  -6.0 6.94e+02  -9.2 9.45e-01 9.60e-01h  1
 113 -2.4840228e-01 7.71e-01 1.67e+00  -6.0 2.27e+03  -9.7 3.26e-01 3.22e-01h  1
 114 -2.4842493e-01 6.20e-01 1.29e+00  -6.0 4.74e+02  -9.3 1.99e-01 2.39e-01h  1
 115 -2.4854814e-01 7.00e-01 1.76e+00  -6.0 6.54e+02  -9.8 1.61e-01 1.78e-01h  1
 116 -2.4870342e-01 6.75e-01 4.83e+00  -6.0 2.08e+02  -9.4 7.49e-01 8.89e-01h  1
 117 -2.4913262e-01 1.21e+01 3.05e+01  -6.0 4.44e+03  -9.8 3.36e-01 2.84e-01h  1
 118 -2.4997286e-01 1.89e+01 5.11e+01  -6.0 1.99e+03  -9.4 6.69e-01 3.74e-01h  1
 119 -2.5013083e-01 1.68e+01 4.57e+01  -6.0 9.38e+02  -9.9 5.34e-01 1.14e-01h  1
iter    objective    inf_pr   inf_du lg(mu)  ||d||  lg(rg) alpha_du alpha_pr  ls
 120 -2.5101638e-01 2.12e+01 6.38e+01  -6.0 2.43e+03 -10.4 4.63e-01 2.64e-01h  1
 121 -2.5132881e-01 1.98e+01 5.97e+01  -6.0 5.05e+03 -10.8 1.41e-01 1.03e-01h  1
 122 -2.5174542e-01 3.45e+01 5.47e+01  -6.0 1.13e+04 -11.3 2.31e-01 1.38e-01h  1
 123 -2.5339568e-01 5.28e+01 1.44e+03  -6.0 3.28e+03 -10.9 8.14e-02 5.23e-01h  1
 124 -2.5379365e-01 4.81e+01 1.30e+03  -6.0 2.69e+03 -10.5 3.93e-02 1.08e-01h  1
 125 -2.5435128e-01 4.13e+01 1.12e+03  -6.0 2.25e+03 -10.0 1.38e-01 1.41e-01h  1
 126 -2.5487239e-01 3.65e+01 9.81e+02  -6.0 3.06e+03 -10.5 1.22e-01 1.22e-01h  1
 127 -2.5497399e-01 3.63e+01 9.77e+02  -6.0 1.91e+04 -10.1 9.86e-03 5.27e-03h  1
 128 -2.5591907e-01 2.48e+01 7.53e+02  -6.0 1.94e+03 -10.6 1.00e+00 3.42e-01h  1
 129 -2.5651137e-01 2.31e+01 5.11e+02  -6.0 2.81e+03 -11.0 2.92e-01 3.20e-01h  1
iter    objective    inf_pr   inf_du lg(mu)  ||d||  lg(rg) alpha_du alpha_pr  ls
 130 -2.5660436e-01 2.71e+01 4.66e+02  -6.0 1.31e+04 -11.5 7.11e-02 8.72e-02h  1
 131 -2.5700717e-01 3.42e+01 3.07e+02  -6.0 3.38e+03 -10.2 4.31e-03 3.34e-01h  1
 132 -2.5724176e-01 2.50e+01 2.27e+02  -6.0 6.84e+02 -10.7 6.38e-01 2.72e-01h  1
 133 -2.5733806e-01 2.16e+01 1.92e+02  -6.0 1.44e+03    -  2.18e-01 1.53e-01h  1
 134 -2.5740010e-01 1.88e+01 1.49e+02  -6.0 1.89e+03    -  1.99e-01 2.22e-01h  1
 135 -2.5751948e-01 1.26e+01 9.36e+01  -6.0 7.15e+02 -10.2 2.97e-01 3.73e-01h  1
 136 -2.5755869e-01 1.27e+01 7.84e+01  -6.0 2.60e+03    -  9.64e-02 1.61e-01h  1
 137 -2.5776680e-01 3.78e+00 4.41e+02  -6.0 6.18e+02    -  3.84e-01 8.20e-01h  1
 138 -2.5807302e-01 1.01e+00 1.80e+03  -6.0 1.85e+02    -  2.67e-01 1.00e+00h  1
 139 -2.5815500e-01 8.27e-01 1.27e+02  -6.0 1.93e+02  -9.8 4.62e-01 2.49e-01h  1
iter    objective    inf_pr   inf_du lg(mu)  ||d||  lg(rg) alpha_du alpha_pr  ls
 140 -2.5831362e-01 1.54e+00 2.07e+03  -6.0 4.88e+02 -10.3 1.00e+00 5.25e-01h  1
 141 -2.5850287e-01 8.48e-01 1.06e+03  -6.0 2.24e+02    -  4.09e-01 6.30e-01h  1
 142 -2.5845245e-01 4.17e-01 7.73e+05  -6.0 1.88e+02  -9.9 1.06e-02 1.00e+00h  1
 143 -2.5845217e-01 7.22e-01 7.47e+05  -6.0 4.91e+03    -  4.95e-01 3.35e-02h  2
 144 -2.5844896e-01 1.10e+00 5.68e+05  -6.0 9.07e+02    -  1.00e+00 2.40e-01h  2
 145 -2.5844629e-01 8.08e-01 3.46e+05  -6.0 2.80e+02    -  5.10e-01 3.91e-01h  2
 146 -2.5844090e-01 3.75e-02 2.33e+01  -6.0 5.78e+01    -  1.00e+00 1.00e+00h  1
 147 -2.5842925e-01 8.41e-03 4.17e-02  -6.0 1.67e+01    -  1.00e+00 1.00e+00h  1
 148 -2.5842812e-01 1.40e-06 1.21e-05  -6.0 2.19e-01    -  1.00e+00 1.00e+00h  1
 149 -2.5894621e-01 1.41e+00 7.04e+01  -7.5 3.38e+03    -  4.78e-01 2.30e-01h  1
iter    objective    inf_pr   inf_du lg(mu)  ||d||  lg(rg) alpha_du alpha_pr  ls
 150 -2.5902483e-01 1.31e+00 1.23e+02  -7.5 8.85e+02 -10.3 4.53e-01 7.16e-02h  1
 151 -2.5938214e-01 9.84e-01 7.65e+01  -7.5 4.78e+02  -9.9 3.70e-01 3.73e-01h  1
 152 -2.5945918e-01 9.28e-01 9.35e+01  -7.5 1.04e+03 -10.4 6.10e-01 1.09e-01h  1
 153 -2.5968476e-01 7.23e-01 5.12e+01  -7.5 4.89e+02 -10.0 1.53e-01 4.00e-01h  1
 154 -2.5974785e-01 6.92e-01 1.24e+02  -7.5 1.02e+03 -10.4 5.52e-01 1.51e-01h  1
 155 -2.5990516e-01 5.69e-01 9.10e+01  -7.5 4.51e+02 -10.0 1.00e+00 5.87e-01h  1
 156 -2.5999214e-01 2.65e+00 4.00e+01  -7.5 8.38e+02 -10.5 5.85e-01 5.57e-01h  1
 157 -2.6005098e-01 1.90e+00 1.53e+01  -7.5 1.24e+03 -11.0 1.00e+00 6.11e-01h  1
 158 -2.6009791e-01 1.14e+01 1.07e+00  -7.5 1.24e+03 -11.4 9.21e-02 1.00e+00h  1
 159 -2.6009594e-01 6.92e+00 6.45e-01  -7.5 4.16e+02    -  6.67e-01 3.95e-01h  1
iter    objective    inf_pr   inf_du lg(mu)  ||d||  lg(rg) alpha_du alpha_pr  ls
 160 -2.6009582e-01 6.85e+00 5.78e-01  -7.5 8.38e+03    -  1.43e-01 2.64e-02h  4
 161 -2.6009150e-01 7.78e+00 2.94e-01  -7.5 1.17e+03    -  6.38e-01 5.00e-01h  2
 162 -2.6008624e-01 1.06e+00 1.51e-02  -7.5 2.55e+02    -  1.00e+00 1.00e+00h  1
 163 -2.6008585e-01 4.00e-02 3.11e-05  -7.5 5.18e+01    -  1.00e+00 1.00e+00h  1
 164 -2.6008585e-01 8.65e-06 9.16e-09  -7.5 7.87e-01    -  1.00e+00 1.00e+00h  1
 165 -2.6008585e-01 3.05e-10 5.40e-13  -7.5 2.65e-04    -  1.00e+00 1.00e+00h  1
 166 -2.6008753e-01 5.86e+00 3.36e+00  -9.0 3.33e+03    -  3.74e-01 1.85e-01h  1
 167 -2.6008980e-01 6.19e+01 1.48e+00  -9.0 5.78e+03    -  2.63e-01 3.32e-01h  1
 168 -2.6009154e-01 4.17e+01 1.33e+00  -9.0 1.59e+03    -  3.92e-01 6.20e-01h  1
 169 -2.6009210e-01 3.53e+01 1.94e+00  -9.0 1.90e+03    -  1.18e-01 2.99e-01h  1
iter    objective    inf_pr   inf_du lg(mu)  ||d||  lg(rg) alpha_du alpha_pr  ls
 170 -2.6009316e-01 3.76e+01 7.03e+00  -9.0 1.65e+03    -  1.15e-01 7.28e-01h  1
 171 -2.6009398e-01 3.90e+01 1.64e+02  -9.0 1.37e+03    -  2.51e-02 1.00e+00h  1
 172 -2.6009387e-01 6.71e+00 3.74e+00  -9.0 5.19e+02    -  4.68e-01 1.00e+00h  1
 173 -2.6009384e-01 8.68e-01 1.16e+00  -9.0 2.74e+02    -  4.40e-01 1.00e+00h  1
 174 -2.6009386e-01 1.79e-01 4.66e-01  -9.0 1.23e+02 -11.9 5.97e-01 1.00e+00h  1
 175 -2.6009394e-01 7.38e-01 4.03e-01  -9.0 3.95e+02 -12.4 1.34e-01 1.00e+00H  1
 176 -2.6009394e-01 1.74e-02 4.34e-06  -9.0 2.25e+01 -11.1 1.00e+00 1.00e+00h  1
 177 -2.6009395e-01 7.06e-02 2.28e-06  -9.0 5.28e+01 -11.6 1.00e+00 1.00e+00h  1
 178 -2.6009399e-01 3.18e-01 2.14e-05  -9.0 1.61e+02 -12.0 1.00e+00 1.00e+00h  1
 179 -2.6009412e-01 3.32e+00 3.07e-03  -9.0 5.23e+02 -12.5 5.36e-01 1.00e+00h  1
iter    objective    inf_pr   inf_du lg(mu)  ||d||  lg(rg) alpha_du alpha_pr  ls
 180 -2.6009436e-01 2.63e+01 2.02e-02  -9.0 7.79e+03 -13.0 1.59e-02 1.87e-01h  2
 181 -2.6009474e-01 1.05e+01 1.34e-03  -9.0 8.90e+02 -12.6 1.00e+00 1.00e+00h  1
 182 -2.6009558e-01 8.68e+01 1.07e-02  -9.0 8.45e+03 -13.0 3.46e-01 2.94e-01h  1
 183 -2.6009583e-01 1.51e+01 1.89e-03  -9.0 1.05e+03 -12.6 1.00e+00 1.00e+00h  1
 184 -2.6009719e-01 7.92e+01 2.84e-01  -9.0 7.61e+03 -13.1 8.34e-02 3.08e-01h  1
 185 -2.6009816e-01 5.44e+01 2.21e-01  -9.0 1.94e+03    -  2.32e-02 7.33e-01h  1
 186 -2.6009817e-01 5.32e+01 6.77e-01  -9.0 6.85e+03    -  1.25e-01 2.40e-02h  1
 187 -2.6009825e-01 4.85e+01 2.08e-01  -9.0 2.84e+03    -  4.55e-01 9.97e-02h  1
Error in an AMPL evaluation. Run with "halt_on_ampl_error yes" to see details.
Warning: Cutting back alpha due to evaluation error
 188 -2.6009854e-01 3.82e+01 3.58e-01  -9.0 2.13e+03    -  5.80e-01 3.99e-01h  2
 189 -2.6009875e-01 3.14e+01 5.25e+00  -9.0 1.73e+03 -11.8 9.55e-02 3.31e-01h  1
iter    objective    inf_pr   inf_du lg(mu)  ||d||  lg(rg) alpha_du alpha_pr  ls
 190 -2.6009860e-01 2.37e+01 3.77e+00  -9.0 7.36e+02 -12.2 4.55e-02 2.63e-01h  1
 191 -2.6009855e-01 1.24e+00 6.66e-02  -9.0 1.85e+02 -11.8 4.27e-01 1.00e+00h  1
 192 -2.6009870e-01 1.43e+00 1.28e-02  -9.0 4.59e+02 -12.3 1.00e+00 6.25e-01h  1
 193 -2.6009937e-01 2.92e+01 8.24e-03  -9.0 1.39e+03 -12.8 1.00e+00 1.00e+00h  1
 194 -2.6009959e-01 3.35e+01 7.85e-03  -9.0 4.50e+03 -13.2 2.16e-01 1.68e-01h  2
 195 -2.6010036e-01 2.33e+01 3.18e-02  -9.0 1.79e+03 -12.8 3.79e-02 8.66e-01H  1
 196 -2.6010035e-01 2.33e+01 3.26e-02  -9.0 5.62e+04 -13.3 1.18e-05 8.40e-04h  6
 197 -2.6010043e-01 2.13e+01 3.84e-02  -9.0 1.91e+03 -12.9 5.19e-01 9.87e-02h  1
 198 -2.6010066e-01 2.49e+01 3.90e-02  -9.0 3.23e+03 -13.3 6.67e-01 2.06e-01h  2
 199 -2.6010072e-01 2.46e+01 3.75e-02  -9.0 4.92e+03 -12.0 3.57e-02 3.90e-02h  3
iter    objective    inf_pr   inf_du lg(mu)  ||d||  lg(rg) alpha_du alpha_pr  ls
 200 -2.6010136e-01 3.66e+01 3.35e-02  -9.0 2.79e+03    -  4.15e-02 7.40e-01H  1
 201 -2.6010094e-01 2.61e+00 2.84e+00  -9.0 3.46e+02    -  2.98e-01 1.00e+00h  1
 202 -2.6010099e-01 2.28e+00 6.89e-04  -9.0 3.35e+02 -12.5 1.00e+00 1.00e+00h  1
 203 -2.6010119e-01 4.02e+01 1.36e-02  -9.0 1.40e+03    -  1.00e+00 1.00e+00h  1
 204 -2.6010111e-01 2.19e+01 8.74e-02  -9.0 6.07e+02    -  3.60e-01 5.00e-01h  2
 205 -2.6010111e-01 4.34e-01 4.87e-04  -9.0 1.62e+02    -  1.00e+00 1.00e+00h  1
 206 -2.6010110e-01 2.04e-01 1.49e-04  -9.0 9.64e+01    -  1.00e+00 1.00e+00h  1
 207 -2.6010110e-01 1.73e-04 1.64e-07  -9.0 2.61e+00    -  1.00e+00 1.00e+00h  1
 208 -2.6010110e-01 7.71e-10 8.07e-13  -9.0 6.09e-03    -  1.00e+00 1.00e+00h  1

Number of Iterations....: 208

                                   (scaled)                 (unscaled)
Objective...............:  -2.6010109903552181e-01   -2.6010109903552181e-01
Dual infeasibility......:   8.0713385421699889e-13    8.0713385421699889e-13
Constraint violation....:   4.1985288243346141e-10    7.7125150710344315e-10
Complementarity.........:   9.0909092079825274e-10    9.0909092079825274e-10
Overall NLP error.......:   9.0909092079825274e-10    9.0909092079825274e-10


Number of objective function evaluations             = 266
Number of objective gradient evaluations             = 209
Number of equality constraint evaluations            = 268
Number of inequality constraint evaluations          = 267
Number of equality constraint Jacobian evaluations   = 211
Number of inequality constraint Jacobian evaluations = 211
Number of Lagrangian Hessian evaluations             = 208
Total CPU secs in IPOPT (w/o function evaluations)   =    448.208
Total CPU secs in NLP function evaluations           =      6.629

EXIT: Optimal Solution Found.
